proyfinal/src/viki/013/experimentInOfficeAgust.take6.output/657f1312-dcc3-4cba-8d7e-a38fa9077597.als.dat
{'cnf.clauses': '118081',
 'cnf.totvars': '69608',
 'conflict literals': '56',
 'conflicts': '24',
 'decisions': '6271',
 'memused.mb': '15.75',
 'outcome': 'UNSAT',
 'propagations': '32578',
 'restarts': '1',
 'solver.msecs': 34,
 'task.msecs': 134}
