proyfinal/src/viki/013/experimentInOfficeAgust.take6.output/657f1312-dcc3-4cba-8d7e-a38fa9077597.als.out
Reading from standard input... Use '--help' for help.
============================[ Problem Statistics ]=============================
|                                                                             |
|  Number of variables:         69608                                         |
|  Number of clauses:          118081                                         |
|  Parse time:                   0.03 s                                       |
|                                                                             |
============================[ Search Statistics ]==============================
| Conflicts |          ORIGINAL         |          LEARNT          | Progress |
|           |    Vars  Clauses Literals |    Limit  Clauses Lit/Cl |          |
===============================================================================
===============================================================================
restarts              : 1
conflicts             : 24             (696 /sec)
decisions             : 6271           (0.00 % random) (181947 /sec)
propagations          : 32578          (945221 /sec)
conflict literals     : 56             (3.45 % deleted)
Memory used           : 15.75 MB
CPU time              : 0.034466 s

UNSATISFIABLE
